171514.3,50.86,63.07
168378.86,51.8,64.24
172257.59,50.64,62.79
173452.51,50.29,62.36
170541.42,51.15,63.43
174041.69,50.12,62.15
172290.78,50.63,62.78
163353.23,53.4,66.22
173095.54,50.39,62.49
167840.12,51.97,64.45
162177.78,53.78,66.7
159363.96,54.73,67.87
190577.99,45.77,56.76
202828.17,43.01,53.33
177919.72,49.03,60.8
163893.16,53.22,66.0
146236.56,59.65,73.97
151037.54,57.75,71.62
160108.07,54.48,67.56
168687.21,51.71,64.12
